Route #1: 15 22 41 20
Route #2: 34 64 96 48 26 47 38
Route #3: 68 90 84 66
Route #4: 31 46 35
Route #5: 58 12 5
Route #6: 17 8
Route #7: 63 77 3
Route #8: 40 88 67 44
Route #9: 81 51 83
Route #10: 23 61 100
Route #11: 7 2 45 43 29 36 72 57
Route #12: 80 94 56 21
Route #13: 30 85 11 79
Route #14: 92 9 86
Route #15: 39 10 18
Route #16: 32 33 53 73 95 24
Route #17: 89 98 99 62 71
Route #18: 1 70 54
Route #19: 50 91 52
Route #20: 14 49 6 37 87
Route #21: 74 13 4
Route #22: 25 65 78 42 28
Route #23: 93 75
Route #24: 69 16 55 76
Route #25: 19 97 27
Route #26: 82 60 59
Cost 27591.0000
Time 16.0006